WARNING: for repeatability, setting FPU to use double precision
============================[ Problem Statistics ]=============================
|                                                                             |
|  Number of variables:           100                                         |
|  Number of clauses:             449                                         |
|  Parse time:                   0.00 s                                       |
|  Eliminated clauses:           0.00 Mb                                      |
|  Simplification time:          0.00 s                                       |
|                                                                             |
============================[ Search Statistics ]==============================
| Conflicts |          ORIGINAL         |          LEARNT          | Progress |
|           |    Vars  Clauses Literals |    Limit  Clauses Lit/Cl |          |
===============================================================================
|       100 |      97      445     1353 |      163      100      7 |  0.010 % |
|       250 |      97      445     1353 |      179      164      7 |  0.010 % |
===============================================================================
restarts              : 4
conflicts             : 468            (111323 /sec)
decisions             : 581            (0.00 % random) (138202 /sec)
propagations          : 10677          (2539724 /sec)
conflict literals     : 3061           (21.37 % deleted)
Memory used           : 13.00 MB
CPU time              : 0.004204 s

SATISFIABLE
